(declare-fun ExpandObjSwitcher () Real)
(declare-fun CreateAsClass () Bool)
(declare-fun ExpandObjSwitcher_2 () Real)
(assert (= ExpandObjSwitcher 1.0))
(assert CreateAsClass)
(assert (not (= ExpandObjSwitcher_2 0.0)))
(assert (not (= ExpandObjSwitcher_2 1.0)))
(assert (not (= ExpandObjSwitcher_2 2.0)))
(assert (not (= ExpandObjSwitcher_2 3.0)))
(assert (not (= ExpandObjSwitcher_2 4.0)))
(assert (not (= ExpandObjSwitcher_2 5.0)))
(assert (not (= ExpandObjSwitcher_2 6.0)))
(assert (not (= ExpandObjSwitcher_2 7.0)))
(assert (not (= ExpandObjSwitcher_2 8.0)))
(assert (not (= ExpandObjSwitcher_2 9.0)))
(assert (not (= ExpandObjSwitcher_2 10.0)))
(assert (not (= ExpandObjSwitcher_2 11.0)))
(assert (not (= ExpandObjSwitcher_2 12.0)))
(assert (= ExpandObjSwitcher_2 13.0))
(assert false)
(check-sat)
